50
100
98
97
97
97
94
91
89
85
84
82
81
80
79
79
75
73
70
69
69
69
68
68
68
66
61
55
54
52
52
51
51
49
49
48
47
47
47
45
44
37
37
36
35
34
34
30
29
29
27
24
